n=16;
a=[10,9,9,5,5,6,3,10,4,7,9,10,8,9,9,5];
b=[0,0,0,1,0,2,0,0,4,0,0,4,0,0,0,0,0,0,2,0,3,3,3,0,0,1,4,0,0,0,0,0,0,2,0,0,0,3,0,0,0,0,0,0,0,0,0,3,1,0,0,0,0,0,0,0,0,0,0,0,4,0,2,0,0,3,0,0,0,0,3,4,2,0,0,0,0,0,0,3,2,3,3,0,0,0,0,3,0,0,0,0,0,0,0,4,0,3,0,0,3,0,0,0,0,0,0,0,0,2,0,0,0,0,0,0,4,3,0,0,3,0,0,0,2,0,0,0,4,0,0,0,2,0,0,3,0,0,0,0,2,0,2,0,0,1,0,0,0,0,0,0,0,0,4,0,0,0,1,0,0,4,0,0,0,0,0,0,0,4,0,0,1,0,1,4,4,0,0,0,0,0,0,0,0,0,0,0,0,0,0,0,0,0,0,4,0,0,0,2,2,0,1,0,0,0,0,0,0,0,0,0,0,0,2,0,0,0,0,0,0,0,0,0,0,0,0,2,0,0,0,0,2,1,1,0,0,0,0,0,0,0,3,0,3,4,0,0,0,0,4,0,0,0,0,0];
